
Value of objective function: 0

Actual values of the variables:
pL1_div_from_law                0
comp_pos0                       0
comp_neg0                       0
comp_pos1                       0
comp_neg1                       0
comp_pos2                       0
comp_neg2                       0
comp_pos3                       0
comp_neg3                       0
comp_pos4                       0
comp_neg4                       0
comp_pos5                       0
comp_neg5                       0
comp_pos6                       0
comp_neg6                       0
comp_pos7                       0
comp_neg7                       0
comp_pos8                       0
comp_neg8                       0
comp_pos9                       0
comp_neg9                       0
comp_pos10                      0
comp_neg10                      0
comp_pos11                      0
comp_neg11                      0
comp_pos12                      0
comp_neg12                      0
comp_pos13                      0
comp_neg13                      0
z_c0_t0               1.32138e+10
p0_c0_t0              2.23761e+09
p1_c0_t0              3.20973e+09
p2_c0_t0              7.23457e+09
p3_c0_t0              5.31924e+08
diff0                           0
normdiff0                       0
z_c0_t1               1.47752e+10
p0_c0_t1              1.92511e+09
p1_c0_t1              3.56381e+09
p2_c0_t1              7.96779e+09
p3_c0_t1              1.31848e+09
diff1                           0
normdiff1                       0
z_c1_t0               1.65566e+10
p0_c1_t0              2.23999e+09
p1_c1_t0              4.12423e+09
p2_c1_t0               9.7728e+09
p3_c1_t0              4.19569e+08
diff2                           0
normdiff2                       0
z_c1_t1               1.94959e+10
p0_c1_t1              2.28003e+09
p1_c1_t1              5.86724e+09
p2_c1_t1              1.08776e+10
p3_c1_t1               4.7099e+08
diff3                           0
normdiff3                       0
z_c2_t0               7.24754e+09
p0_c2_t0              7.64259e+08
p1_c2_t0              1.68295e+09
p2_c2_t0              4.42944e+09
p3_c2_t0              3.70891e+08
diff4                           0
normdiff4                       0
z_c2_t1               7.97123e+09
p0_c2_t1              6.20419e+08
p1_c2_t1              1.94768e+09
p2_c2_t1              4.82844e+09
p3_c2_t1              5.74684e+08
diff5                           0
normdiff5                       0
z_c3_t0               1.22612e+10
p0_c3_t0              1.38273e+09
p1_c3_t0              2.87721e+09
p2_c3_t0              7.12938e+09
p3_c3_t0              8.71868e+08
diff6                           0
normdiff6                       0
z_c3_t1               1.42798e+10
p0_c3_t1              1.57964e+09
p1_c3_t1              2.91743e+09
p2_c3_t1              7.30256e+09
p3_c3_t1              2.48015e+09
diff7                           0
normdiff7                       0
z_c4_t0               7.97197e+09
p0_c4_t0              6.10301e+08
p1_c4_t0              3.25182e+09
p2_c4_t0              3.94443e+09
p3_c4_t0              1.65422e+08
diff8                           0
normdiff8                       0
z_c4_t1                8.9819e+09
p0_c4_t1              6.31077e+08
p1_c4_t1              2.96411e+09
p2_c4_t1              5.16877e+09
p3_c4_t1               2.1794e+08
diff9                           0
normdiff9                       0
z_c5_t0               1.00642e+10
p0_c5_t0              1.07624e+09
p1_c5_t0              2.68973e+09
p2_c5_t0              6.22933e+09
p3_c5_t0              6.88597e+07
diff10                          0
normdiff10                      0
z_c5_t1                1.2016e+10
p0_c5_t1              7.94111e+08
p1_c5_t1              2.69088e+09
p2_c5_t1              8.17232e+09
p3_c5_t1              3.58693e+08
diff11                          0
normdiff11                      0
z_c6_t0               1.81204e+10
p0_c6_t0              1.94568e+09
p1_c6_t0              3.43202e+09
p2_c6_t0               1.2338e+10
p3_c6_t0              4.04615e+08
diff12                          0
normdiff12                      0
z_c6_t1               2.06345e+10
p0_c6_t1              2.11305e+09
p1_c6_t1              3.11457e+09
p2_c6_t1              1.51022e+10
p3_c6_t1              3.04671e+08
diff13                          0
normdiff13                      0
